************************************************************************
file with basedata            : mm3_.bas
initial value random generator: 239511140
************************************************************************
projects                      :  1
jobs (incl. supersource/sink ):  12
horizon                       :  68
RESOURCES
  - renewable                 :  2   R
  - nonrenewable              :  2   N
  - doubly constrained        :  0   D
************************************************************************
PROJECT INFORMATION:
pronr.  #jobs rel.date duedate tardcost  MPM-Time
    1     10      0       15        1       15
************************************************************************
PRECEDENCE RELATIONS:
jobnr.    #modes  #successors   successors
   0        1          3           1   2   3
   1        3          3           4   5   6
   2        3          1           5
   3        3          1           6
   4        3          2           7  10
   5        3          2           8  10
   6        3          2           9  10
   7        3          1           8
   8        3          1          11
   9        3          1          11
  10        3          1          11
  11        1          0        
************************************************************************
REQUESTS/DURATIONS:
jobnr. mode duration  R 1  R 2  R 3  R 4  E(W 1)  E(W 2)  E(W 3)
------------------------------------------------------------------------
  0      1     0       0    0    0    0     0       0       0
  1      1     1       0    9    5    0     9       5       0
  2      1     4       0    5    0    9    20       0      36
  3      1     1       0    8   10    0     8      10       0
  4      1     3       8    0    0   10    24       0      30
  5      1     3      10    0    6    0    30      18       0
  6      1     2       6    0    8    0    12      16       0
  7      1     4       8    0    0   10    32       0      40
  8      1     7       0    6    3    0    42      21       0
  9      1     2       0    4    8    0     8      16       0
 10      1     6       6    0    6    0    36      36       0
 11      1     0       0    0    0    0     0       0       0
************************************************************************
RESOURCEAVAILABILITIES:
  R 1  R 2  R 3
   18   43   52
************************************************************************
RESOURCE LIMITS:
jobnr.  l(R 1)  u(R 1)  l(R 2)  u(R 2)  l(R 3)  u(R 3)
------------------------------------------------------------------------
  0        0       0       0       0       0       0
  1        5       9       3       5       0       0
  2        3       5       0       0       5       9
  3        4       8       5      10       0       0
  4        4       8       0       0       5      10
  5        5      10       3       6       0       0
  6        3       6       4       8       0       0
  7        4       8       0       0       5      10
  8        3       6       2       3       0       0
  9        2       4       4       8       0       0
 10        3       6       3       6       0       0
 11        0       0       0       0       0       0
************************************************************************
SCENARIOS:
------------------------------------------------------------------------
RESOURCE k = 1
s = 1: (0, 8, 34, 6, 30, 31, 12, 26, 34, 8, 62, 0)
s = 2: (0, 10, 18, 8, 30, 28, 17, 24, 43, 9, 27, 0)
s = 3: (0, 7, 19, 6, 40, 26, 14, 18, 40, 12, 31, 0)
s = 4: (0, 7, 14, 10, 41, 34, 15, 34, 41, 5, 33, 0)
s = 5: (0, 10, 19, 9, 31, 52, 12, 33, 24, 8, 46, 0)
s = 6: (0, 13, 24, 8, 14, 23, 9, 35, 31, 7, 21, 0)
s = 7: (0, 13, 12, 9, 17, 24, 13, 26, 23, 7, 42, 0)
s = 8: (0, 6, 30, 6, 20, 35, 10, 51, 38, 6, 52, 0)
s = 9: (0, 6, 27, 10, 29, 29, 11, 21, 39, 6, 24, 0)
s = 10: (0, 10, 13, 11, 25, 35, 13, 30, 61, 12, 36, 0)
s = 11: (0, 11, 28, 8, 23, 28, 10, 26, 34, 16, 60, 0)
s = 12: (0, 9, 18, 11, 18, 33, 11, 28, 26, 13, 19, 0)
s = 13: (0, 7, 23, 7, 36, 23, 10, 46, 72, 10, 47, 0)
s = 14: (0, 6, 24, 5, 25, 54, 20, 26, 48, 7, 29, 0)
s = 15: (0, 12, 18, 8, 19, 29, 15, 40, 59, 8, 49, 0)
s = 16: (0, 8, 23, 6, 30, 25, 10, 25, 35, 7, 51, 0)
s = 17: (0, 7, 13, 9, 35, 23, 9, 24, 37, 10, 41, 0)
s = 18: (0, 12, 17, 9, 19, 48, 15, 23, 34, 8, 37, 0)
s = 19: (0, 7, 16, 6, 22, 33, 16, 26, 45, 6, 43, 0)
s = 20: (0, 9, 15, 11, 20, 26, 12, 42, 28, 5, 27, 0)
s = 21: (0, 7, 22, 5, 14, 47, 11, 40, 53, 8, 45, 0)
s = 22: (0, 10, 21, 11, 23, 52, 13, 38, 47, 8, 53, 0)
s = 23: (0, 9, 26, 11, 16, 32, 19, 32, 38, 5, 34, 0)
s = 24: (0, 12, 30, 7, 30, 19, 11, 35, 45, 11, 31, 0)
s = 25: (0, 9, 19, 7, 25, 51, 10, 21, 65, 6, 53, 0)
s = 26: (0, 10, 24, 7, 31, 37, 14, 36, 38, 8, 34, 0)
s = 27: (0, 8, 23, 7, 37, 25, 9, 33, 34, 7, 25, 0)
s = 28: (0, 10, 21, 6, 21, 29, 15, 46, 47, 5, 34, 0)
s = 29: (0, 7, 13, 9, 20, 32, 10, 21, 34, 14, 27, 0)
s = 30: (0, 7, 11, 8, 19, 22, 9, 24, 66, 9, 35, 0)
s = 31: (0, 10, 23, 10, 19, 29, 18, 23, 39, 13, 25, 0)
s = 32: (0, 7, 24, 8, 26, 29, 10, 25, 38, 6, 63, 0)
s = 33: (0, 6, 15, 8, 29, 30, 12, 48, 60, 9, 53, 0)
s = 34: (0, 7, 17, 7, 20, 28, 10, 41, 46, 13, 21, 0)
s = 35: (0, 9, 25, 10, 22, 21, 11, 22, 41, 7, 39, 0)
s = 36: (0, 8, 16, 8, 24, 27, 11, 18, 27, 6, 34, 0)
s = 37: (0, 12, 14, 6, 30, 20, 10, 36, 34, 8, 35, 0)
s = 38: (0, 5, 22, 8, 14, 27, 10, 20, 56, 7, 39, 0)
s = 39: (0, 12, 12, 6, 15, 28, 15, 40, 38, 7, 51, 0)
s = 40: (0, 13, 26, 10, 28, 19, 13, 23, 53, 12, 47, 0)
s = 41: (0, 13, 11, 12, 30, 37, 9, 23, 43, 13, 27, 0)
s = 42: (0, 9, 13, 11, 42, 39, 19, 20, 24, 8, 34, 0)
s = 43: (0, 7, 22, 10, 22, 24, 11, 43, 52, 9, 36, 0)
s = 44: (0, 15, 18, 8, 28, 28, 16, 32, 24, 8, 29, 0)
s = 45: (0, 6, 37, 7, 21, 24, 11, 29, 54, 10, 32, 0)
s = 46: (0, 14, 26, 13, 16, 31, 10, 45, 63, 10, 50, 0)
s = 47: (0, 10, 21, 8, 26, 28, 8, 29, 51, 9, 39, 0)
s = 48: (0, 10, 21, 7, 17, 34, 7, 29, 57, 6, 23, 0)
s = 49: (0, 11, 26, 8, 34, 37, 14, 55, 34, 8, 31, 0)
s = 50: (0, 11, 14, 7, 19, 20, 16, 21, 41, 6, 44, 0)
s = 51: (0, 10, 16, 11, 22, 41, 10, 40, 30, 11, 38, 0)
s = 52: (0, 9, 13, 11, 24, 39, 19, 46, 28, 8, 22, 0)
s = 53: (0, 5, 19, 11, 22, 27, 8, 25, 56, 6, 32, 0)
s = 54: (0, 6, 21, 9, 25, 27, 8, 24, 26, 6, 30, 0)
s = 55: (0, 14, 14, 12, 18, 27, 11, 35, 40, 8, 29, 0)
s = 56: (0, 6, 17, 6, 23, 36, 10, 30, 63, 10, 27, 0)
s = 57: (0, 9, 36, 6, 22, 52, 9, 20, 31, 11, 26, 0)
s = 58: (0, 8, 18, 7, 23, 34, 8, 39, 22, 9, 35, 0)
s = 59: (0, 9, 16, 8, 26, 29, 10, 30, 30, 6, 42, 0)
s = 60: (0, 10, 15, 7, 16, 28, 12, 25, 40, 5, 32, 0)
s = 61: (0, 7, 14, 12, 17, 19, 10, 21, 38, 8, 36, 0)
s = 62: (0, 9, 21, 9, 16, 38, 12, 28, 27, 11, 39, 0)
s = 63: (0, 6, 20, 7, 27, 29, 15, 47, 32, 6, 33, 0)
s = 64: (0, 6, 12, 7, 17, 30, 9, 24, 39, 10, 34, 0)
s = 65: (0, 11, 12, 8, 37, 24, 15, 20, 28, 5, 29, 0)
s = 66: (0, 7, 18, 9, 13, 31, 11, 34, 66, 8, 34, 0)
s = 67: (0, 11, 21, 10, 22, 36, 10, 29, 32, 6, 27, 0)
s = 68: (0, 16, 16, 8, 19, 28, 10, 33, 27, 9, 36, 0)
s = 69: (0, 7, 22, 10, 28, 28, 17, 48, 39, 12, 43, 0)
s = 70: (0, 8, 31, 7, 33, 31, 10, 19, 51, 7, 45, 0)
s = 71: (0, 12, 19, 7, 26, 44, 16, 41, 30, 8, 53, 0)
s = 72: (0, 8, 21, 13, 26, 20, 8, 39, 39, 8, 30, 0)
s = 73: (0, 6, 18, 9, 27, 45, 13, 32, 43, 9, 32, 0)
s = 74: (0, 6, 25, 12, 30, 39, 18, 23, 37, 9, 26, 0)
s = 75: (0, 8, 23, 8, 17, 43, 15, 42, 32, 7, 32, 0)
s = 76: (0, 8, 23, 6, 23, 27, 19, 25, 33, 7, 42, 0)
s = 77: (0, 10, 29, 11, 16, 48, 8, 23, 46, 9, 44, 0)
s = 78: (0, 8, 31, 5, 15, 31, 13, 33, 41, 9, 36, 0)
s = 79: (0, 7, 15, 10, 19, 35, 18, 22, 42, 8, 36, 0)
s = 80: (0, 7, 13, 8, 33, 23, 14, 39, 33, 12, 31, 0)
s = 81: (0, 13, 15, 6, 19, 22, 14, 41, 43, 12, 38, 0)
s = 82: (0, 14, 19, 8, 35, 34, 14, 32, 72, 9, 32, 0)
s = 83: (0, 8, 11, 11, 38, 22, 13, 29, 57, 8, 48, 0)
s = 84: (0, 11, 23, 12, 21, 27, 21, 21, 45, 11, 34, 0)
s = 85: (0, 9, 19, 9, 39, 18, 15, 32, 34, 11, 58, 0)
s = 86: (0, 12, 14, 14, 26, 24, 10, 41, 52, 10, 55, 0)
s = 87: (0, 14, 26, 13, 26, 26, 14, 55, 46, 5, 45, 0)
s = 88: (0, 7, 17, 9, 22, 20, 16, 33, 33, 10, 42, 0)
s = 89: (0, 8, 27, 9, 25, 24, 8, 42, 52, 11, 37, 0)
s = 90: (0, 7, 23, 8, 27, 39, 8, 32, 35, 12, 25, 0)
s = 91: (0, 12, 27, 8, 37, 28, 7, 29, 74, 13, 50, 0)
s = 92: (0, 5, 17, 8, 25, 32, 9, 35, 36, 5, 38, 0)
s = 93: (0, 9, 13, 7, 28, 26, 12, 21, 45, 12, 24, 0)
s = 94: (0, 10, 25, 8, 20, 24, 12, 26, 52, 8, 34, 0)
s = 95: (0, 8, 13, 7, 26, 53, 13, 51, 50, 9, 30, 0)
s = 96: (0, 6, 26, 8, 19, 21, 12, 43, 50, 8, 22, 0)
s = 97: (0, 8, 16, 13, 21, 45, 13, 37, 36, 14, 52, 0)
s = 98: (0, 8, 18, 6, 27, 27, 11, 31, 29, 5, 39, 0)
s = 99: (0, 11, 22, 8, 17, 44, 17, 39, 34, 7, 35, 0)
s = 100: (0, 7, 14, 10, 15, 23, 10, 31, 35, 6, 42, 0)
s = 101: (0, 13, 23, 9, 23, 23, 17, 43, 65, 10, 54, 0)
s = 102: (0, 7, 16, 11, 24, 24, 12, 46, 43, 6, 35, 0)
s = 103: (0, 15, 15, 8, 25, 28, 9, 37, 63, 11, 42, 0)
s = 104: (0, 9, 20, 12, 23, 27, 17, 52, 32, 8, 26, 0)
s = 105: (0, 8, 33, 5, 30, 34, 12, 28, 29, 6, 25, 0)
s = 106: (0, 11, 26, 16, 25, 33, 12, 28, 55, 6, 26, 0)
s = 107: (0, 9, 23, 7, 18, 23, 14, 30, 52, 9, 26, 0)
s = 108: (0, 9, 21, 15, 24, 29, 8, 17, 50, 11, 45, 0)
s = 109: (0, 10, 20, 5, 16, 30, 13, 19, 65, 8, 32, 0)
s = 110: (0, 11, 16, 13, 16, 36, 13, 30, 28, 8, 22, 0)
s = 111: (0, 7, 13, 5, 28, 43, 15, 26, 38, 9, 43, 0)
s = 112: (0, 15, 11, 9, 20, 37, 17, 37, 45, 12, 43, 0)
s = 113: (0, 6, 17, 8, 24, 28, 10, 32, 48, 7, 32, 0)
s = 114: (0, 8, 17, 11, 36, 37, 11, 40, 40, 12, 25, 0)
s = 115: (0, 7, 15, 7, 28, 31, 9, 25, 51, 8, 23, 0)
s = 116: (0, 9, 14, 9, 21, 26, 15, 37, 50, 9, 36, 0)
s = 117: (0, 7, 16, 9, 21, 45, 14, 32, 35, 8, 54, 0)
s = 118: (0, 11, 19, 8, 33, 26, 15, 44, 64, 9, 29, 0)
s = 119: (0, 13, 21, 8, 17, 30, 12, 24, 42, 8, 37, 0)
s = 120: (0, 10, 27, 8, 15, 44, 11, 22, 33, 12, 32, 0)
s = 121: (0, 10, 22, 8, 35, 22, 9, 19, 32, 7, 37, 0)
s = 122: (0, 8, 28, 9, 20, 27, 11, 24, 48, 7, 26, 0)
s = 123: (0, 12, 18, 11, 31, 27, 10, 40, 32, 10, 25, 0)
s = 124: (0, 9, 16, 8, 36, 31, 13, 28, 41, 7, 37, 0)
s = 125: (0, 7, 14, 5, 16, 27, 11, 53, 44, 11, 37, 0)
s = 126: (0, 8, 22, 9, 14, 34, 13, 22, 26, 10, 25, 0)
s = 127: (0, 8, 12, 7, 25, 42, 8, 28, 55, 6, 28, 0)
s = 128: (0, 9, 23, 9, 28, 26, 17, 37, 28, 12, 27, 0)
s = 129: (0, 8, 27, 11, 21, 40, 19, 42, 43, 12, 28, 0)
s = 130: (0, 8, 23, 9, 33, 32, 8, 21, 40, 6, 36, 0)
s = 131: (0, 11, 26, 7, 16, 22, 11, 23, 52, 7, 30, 0)
s = 132: (0, 13, 16, 7, 33, 29, 9, 43, 34, 7, 30, 0)
s = 133: (0, 8, 25, 8, 16, 26, 8, 19, 41, 8, 31, 0)
s = 134: (0, 7, 16, 5, 24, 27, 10, 30, 43, 9, 42, 0)
s = 135: (0, 10, 23, 12, 18, 28, 19, 41, 37, 7, 56, 0)
s = 136: (0, 13, 21, 14, 15, 27, 15, 49, 23, 7, 48, 0)
s = 137: (0, 9, 12, 5, 16, 25, 12, 26, 33, 5, 37, 0)
s = 138: (0, 9, 29, 13, 27, 23, 10, 38, 28, 11, 45, 0)
s = 139: (0, 10, 16, 6, 34, 42, 16, 43, 49, 9, 28, 0)
s = 140: (0, 6, 21, 7, 27, 31, 10, 24, 53, 10, 37, 0)
s = 141: (0, 9, 30, 10, 31, 31, 14, 29, 57, 10, 21, 0)
s = 142: (0, 10, 12, 7, 16, 40, 15, 42, 37, 7, 35, 0)
s = 143: (0, 10, 22, 5, 25, 42, 11, 30, 38, 11, 30, 0)
s = 144: (0, 11, 20, 5, 18, 28, 8, 19, 27, 6, 31, 0)
s = 145: (0, 7, 23, 12, 39, 31, 13, 26, 43, 6, 47, 0)
s = 146: (0, 15, 26, 9, 28, 24, 13, 27, 51, 13, 37, 0)
s = 147: (0, 10, 17, 9, 23, 21, 8, 28, 29, 10, 30, 0)
s = 148: (0, 6, 16, 9, 15, 28, 10, 29, 63, 7, 33, 0)
s = 149: (0, 10, 20, 6, 44, 25, 13, 35, 37, 12, 68, 0)
s = 150: (0, 11, 15, 9, 45, 33, 9, 33, 30, 5, 30, 0)
s = 151: (0, 13, 18, 12, 33, 50, 7, 29, 42, 9, 32, 0)
s = 152: (0, 11, 20, 6, 29, 36, 9, 39, 36, 7, 57, 0)
s = 153: (0, 12, 22, 9, 29, 44, 11, 34, 52, 9, 32, 0)
s = 154: (0, 6, 19, 10, 30, 48, 8, 24, 34, 8, 37, 0)
s = 155: (0, 10, 21, 7, 32, 39, 11, 40, 40, 6, 39, 0)
s = 156: (0, 6, 17, 8, 28, 26, 20, 26, 63, 6, 35, 0)
s = 157: (0, 10, 18, 11, 30, 26, 10, 32, 32, 13, 19, 0)
s = 158: (0, 13, 20, 8, 25, 37, 20, 24, 60, 5, 36, 0)
s = 159: (0, 9, 28, 12, 20, 41, 20, 38, 37, 11, 33, 0)
s = 160: (0, 9, 17, 7, 23, 19, 15, 35, 30, 12, 41, 0)
s = 161: (0, 7, 21, 9, 17, 28, 12, 37, 30, 10, 29, 0)
s = 162: (0, 15, 25, 7, 22, 23, 9, 31, 26, 6, 28, 0)
s = 163: (0, 10, 28, 6, 23, 47, 17, 53, 44, 5, 27, 0)
s = 164: (0, 9, 31, 7, 16, 23, 8, 43, 49, 9, 23, 0)
s = 165: (0, 9, 25, 8, 21, 36, 12, 31, 57, 10, 34, 0)
s = 166: (0, 7, 32, 8, 22, 25, 15, 37, 66, 6, 38, 0)
s = 167: (0, 8, 20, 11, 27, 27, 9, 50, 39, 8, 55, 0)
s = 168: (0, 12, 18, 12, 30, 27, 9, 24, 40, 8, 27, 0)
s = 169: (0, 6, 20, 10, 18, 24, 10, 35, 57, 6, 30, 0)
s = 170: (0, 10, 29, 9, 34, 27, 14, 29, 27, 6, 40, 0)
s = 171: (0, 8, 35, 8, 27, 23, 7, 30, 35, 9, 24, 0)
s = 172: (0, 7, 23, 12, 29, 45, 11, 37, 53, 8, 24, 0)
s = 173: (0, 6, 20, 9, 27, 43, 12, 32, 40, 7, 42, 0)
s = 174: (0, 7, 20, 11, 14, 30, 14, 43, 44, 11, 27, 0)
s = 175: (0, 8, 23, 10, 29, 24, 14, 40, 33, 6, 37, 0)
s = 176: (0, 7, 17, 10, 22, 26, 9, 27, 46, 6, 26, 0)
s = 177: (0, 10, 19, 6, 36, 26, 16, 18, 36, 8, 49, 0)
s = 178: (0, 7, 31, 8, 24, 27, 15, 47, 49, 9, 35, 0)
s = 179: (0, 5, 17, 6, 23, 29, 10, 29, 32, 11, 34, 0)
s = 180: (0, 7, 20, 9, 22, 23, 10, 43, 41, 6, 27, 0)
s = 181: (0, 8, 17, 5, 39, 18, 10, 25, 38, 13, 37, 0)
s = 182: (0, 9, 22, 8, 19, 21, 14, 29, 49, 8, 31, 0)
s = 183: (0, 8, 23, 6, 23, 18, 8, 56, 63, 8, 34, 0)
s = 184: (0, 8, 24, 6, 17, 35, 14, 29, 58, 6, 51, 0)
s = 185: (0, 8, 27, 9, 24, 26, 9, 29, 39, 6, 25, 0)
s = 186: (0, 8, 20, 7, 16, 20, 16, 50, 59, 7, 33, 0)
s = 187: (0, 18, 20, 11, 21, 21, 12, 30, 24, 6, 26, 0)
s = 188: (0, 10, 23, 5, 31, 50, 10, 35, 46, 10, 42, 0)
s = 189: (0, 12, 15, 10, 26, 20, 12, 22, 44, 6, 24, 0)
s = 190: (0, 7, 23, 9, 17, 33, 16, 39, 33, 9, 31, 0)
s = 191: (0, 6, 16, 7, 37, 29, 11, 45, 29, 6, 39, 0)
s = 192: (0, 8, 20, 13, 38, 23, 14, 24, 36, 8, 50, 0)
s = 193: (0, 8, 22, 8, 21, 34, 18, 32, 39, 7, 30, 0)
s = 194: (0, 16, 15, 8, 22, 34, 8, 31, 36, 6, 21, 0)
s = 195: (0, 7, 24, 7, 28, 34, 15, 51, 32, 6, 24, 0)
s = 196: (0, 12, 15, 8, 20, 35, 17, 37, 27, 7, 30, 0)
s = 197: (0, 10, 12, 6, 25, 39, 15, 37, 47, 9, 44, 0)
s = 198: (0, 15, 19, 11, 32, 38, 15, 46, 48, 8, 29, 0)
s = 199: (0, 9, 27, 7, 15, 45, 11, 23, 61, 8, 39, 0)
s = 200: (0, 6, 20, 8, 22, 20, 12, 40, 32, 6, 38, 0)
------------------------------------------------------------------------
RESOURCE k = 2
s = 1: (0, 5, 0, 7, 0, 19, 16, 0, 17, 16, 62, 0)
s = 2: (0, 6, 0, 10, 0, 17, 22, 0, 22, 17, 27, 0)
s = 3: (0, 4, 0, 8, 0, 16, 19, 0, 20, 24, 31, 0)
s = 4: (0, 4, 0, 13, 0, 21, 19, 0, 21, 10, 33, 0)
s = 5: (0, 6, 0, 11, 0, 31, 16, 0, 12, 16, 46, 0)
s = 6: (0, 7, 0, 10, 0, 14, 11, 0, 16, 14, 21, 0)
s = 7: (0, 7, 0, 12, 0, 14, 17, 0, 12, 13, 42, 0)
s = 8: (0, 3, 0, 8, 0, 21, 13, 0, 19, 12, 52, 0)
s = 9: (0, 4, 0, 12, 0, 18, 14, 0, 20, 12, 24, 0)
s = 10: (0, 6, 0, 13, 0, 21, 17, 0, 31, 23, 36, 0)
s = 11: (0, 6, 0, 10, 0, 17, 14, 0, 17, 31, 60, 0)
s = 12: (0, 5, 0, 14, 0, 20, 15, 0, 13, 25, 19, 0)
s = 13: (0, 4, 0, 9, 0, 14, 13, 0, 36, 19, 47, 0)
s = 14: (0, 4, 0, 6, 0, 33, 27, 0, 24, 14, 29, 0)
s = 15: (0, 7, 0, 10, 0, 18, 19, 0, 30, 15, 49, 0)
s = 16: (0, 5, 0, 8, 0, 15, 13, 0, 18, 14, 51, 0)
s = 17: (0, 4, 0, 11, 0, 14, 11, 0, 19, 19, 41, 0)
s = 18: (0, 7, 0, 11, 0, 29, 20, 0, 17, 15, 37, 0)
s = 19: (0, 4, 0, 8, 0, 20, 21, 0, 23, 12, 43, 0)
s = 20: (0, 5, 0, 13, 0, 16, 16, 0, 14, 10, 27, 0)
s = 21: (0, 4, 0, 7, 0, 29, 15, 0, 27, 16, 45, 0)
s = 22: (0, 6, 0, 14, 0, 32, 17, 0, 24, 16, 53, 0)
s = 23: (0, 5, 0, 13, 0, 20, 25, 0, 19, 10, 34, 0)
s = 24: (0, 7, 0, 9, 0, 11, 15, 0, 23, 22, 31, 0)
s = 25: (0, 5, 0, 8, 0, 31, 13, 0, 33, 12, 53, 0)
s = 26: (0, 6, 0, 9, 0, 23, 18, 0, 19, 16, 34, 0)
s = 27: (0, 5, 0, 8, 0, 15, 12, 0, 17, 13, 25, 0)
s = 28: (0, 6, 0, 7, 0, 18, 20, 0, 24, 9, 34, 0)
s = 29: (0, 4, 0, 11, 0, 20, 13, 0, 17, 27, 27, 0)
s = 30: (0, 4, 0, 10, 0, 14, 11, 0, 33, 18, 35, 0)
s = 31: (0, 6, 0, 12, 0, 18, 24, 0, 20, 26, 25, 0)
s = 32: (0, 4, 0, 9, 0, 18, 13, 0, 19, 11, 63, 0)
s = 33: (0, 3, 0, 10, 0, 18, 15, 0, 30, 18, 53, 0)
s = 34: (0, 4, 0, 9, 0, 17, 13, 0, 23, 26, 21, 0)
s = 35: (0, 5, 0, 12, 0, 13, 15, 0, 21, 14, 39, 0)
s = 36: (0, 5, 0, 10, 0, 16, 14, 0, 14, 11, 34, 0)
s = 37: (0, 7, 0, 7, 0, 12, 13, 0, 17, 16, 35, 0)
s = 38: (0, 3, 0, 9, 0, 16, 13, 0, 28, 14, 39, 0)
s = 39: (0, 7, 0, 7, 0, 17, 20, 0, 19, 13, 51, 0)
s = 40: (0, 8, 0, 12, 0, 12, 18, 0, 27, 24, 47, 0)
s = 41: (0, 7, 0, 14, 0, 22, 12, 0, 22, 25, 27, 0)
s = 42: (0, 5, 0, 13, 0, 24, 25, 0, 12, 16, 34, 0)
s = 43: (0, 4, 0, 12, 0, 15, 14, 0, 26, 18, 36, 0)
s = 44: (0, 8, 0, 10, 0, 17, 21, 0, 12, 16, 29, 0)
s = 45: (0, 4, 0, 9, 0, 15, 14, 0, 27, 19, 32, 0)
s = 46: (0, 8, 0, 16, 0, 19, 14, 0, 32, 19, 50, 0)
s = 47: (0, 6, 0, 10, 0, 17, 11, 0, 26, 18, 39, 0)
s = 48: (0, 6, 0, 9, 0, 20, 9, 0, 29, 12, 23, 0)
s = 49: (0, 7, 0, 10, 0, 23, 19, 0, 17, 16, 31, 0)
s = 50: (0, 6, 0, 8, 0, 12, 21, 0, 21, 12, 44, 0)
s = 51: (0, 6, 0, 14, 0, 25, 13, 0, 15, 22, 38, 0)
s = 52: (0, 5, 0, 13, 0, 24, 25, 0, 14, 16, 22, 0)
s = 53: (0, 3, 0, 14, 0, 16, 10, 0, 28, 11, 32, 0)
s = 54: (0, 4, 0, 12, 0, 17, 11, 0, 13, 12, 30, 0)
s = 55: (0, 8, 0, 15, 0, 16, 14, 0, 20, 15, 29, 0)
s = 56: (0, 4, 0, 8, 0, 22, 13, 0, 32, 20, 27, 0)
s = 57: (0, 5, 0, 7, 0, 31, 12, 0, 16, 21, 26, 0)
s = 58: (0, 5, 0, 9, 0, 20, 10, 0, 11, 18, 35, 0)
s = 59: (0, 5, 0, 10, 0, 17, 13, 0, 15, 11, 42, 0)
s = 60: (0, 6, 0, 8, 0, 17, 16, 0, 20, 10, 32, 0)
s = 61: (0, 4, 0, 15, 0, 11, 13, 0, 19, 15, 36, 0)
s = 62: (0, 5, 0, 11, 0, 23, 16, 0, 14, 22, 39, 0)
s = 63: (0, 3, 0, 9, 0, 17, 20, 0, 16, 11, 33, 0)
s = 64: (0, 4, 0, 8, 0, 18, 12, 0, 20, 20, 34, 0)
s = 65: (0, 6, 0, 9, 0, 15, 20, 0, 14, 9, 29, 0)
s = 66: (0, 4, 0, 11, 0, 19, 15, 0, 33, 16, 34, 0)
s = 67: (0, 6, 0, 12, 0, 22, 13, 0, 16, 12, 27, 0)
s = 68: (0, 9, 0, 10, 0, 17, 13, 0, 14, 17, 36, 0)
s = 69: (0, 4, 0, 12, 0, 17, 22, 0, 20, 23, 43, 0)
s = 70: (0, 5, 0, 9, 0, 19, 13, 0, 26, 14, 45, 0)
s = 71: (0, 7, 0, 8, 0, 27, 21, 0, 15, 15, 53, 0)
s = 72: (0, 5, 0, 16, 0, 12, 10, 0, 20, 15, 30, 0)
s = 73: (0, 4, 0, 11, 0, 27, 17, 0, 22, 17, 32, 0)
s = 74: (0, 3, 0, 14, 0, 24, 24, 0, 19, 17, 26, 0)
s = 75: (0, 5, 0, 10, 0, 26, 19, 0, 16, 13, 32, 0)
s = 76: (0, 5, 0, 8, 0, 16, 25, 0, 17, 14, 42, 0)
s = 77: (0, 6, 0, 13, 0, 29, 10, 0, 23, 17, 44, 0)
s = 78: (0, 4, 0, 7, 0, 19, 18, 0, 21, 17, 36, 0)
s = 79: (0, 4, 0, 12, 0, 21, 24, 0, 21, 15, 36, 0)
s = 80: (0, 4, 0, 10, 0, 14, 18, 0, 17, 23, 31, 0)
s = 81: (0, 7, 0, 7, 0, 13, 18, 0, 22, 24, 38, 0)
s = 82: (0, 8, 0, 9, 0, 21, 18, 0, 36, 18, 32, 0)
s = 83: (0, 5, 0, 13, 0, 14, 17, 0, 29, 16, 48, 0)
s = 84: (0, 6, 0, 14, 0, 16, 28, 0, 23, 21, 34, 0)
s = 85: (0, 5, 0, 11, 0, 11, 20, 0, 17, 22, 58, 0)
s = 86: (0, 7, 0, 17, 0, 15, 13, 0, 26, 19, 55, 0)
s = 87: (0, 8, 0, 16, 0, 16, 18, 0, 23, 10, 45, 0)
s = 88: (0, 4, 0, 11, 0, 12, 22, 0, 17, 20, 42, 0)
s = 89: (0, 5, 0, 11, 0, 15, 11, 0, 26, 21, 37, 0)
s = 90: (0, 4, 0, 9, 0, 24, 11, 0, 18, 24, 25, 0)
s = 91: (0, 7, 0, 10, 0, 17, 9, 0, 37, 26, 50, 0)
s = 92: (0, 3, 0, 10, 0, 19, 12, 0, 18, 10, 38, 0)
s = 93: (0, 5, 0, 9, 0, 16, 16, 0, 23, 23, 24, 0)
s = 94: (0, 6, 0, 10, 0, 15, 16, 0, 26, 16, 34, 0)
s = 95: (0, 4, 0, 8, 0, 32, 17, 0, 25, 17, 30, 0)
s = 96: (0, 4, 0, 9, 0, 13, 16, 0, 25, 16, 22, 0)
s = 97: (0, 5, 0, 16, 0, 27, 18, 0, 18, 27, 52, 0)
s = 98: (0, 5, 0, 7, 0, 16, 15, 0, 15, 9, 39, 0)
s = 99: (0, 6, 0, 10, 0, 27, 22, 0, 17, 13, 35, 0)
s = 100: (0, 4, 0, 13, 0, 14, 13, 0, 18, 11, 42, 0)
s = 101: (0, 7, 0, 11, 0, 14, 23, 0, 33, 19, 54, 0)
s = 102: (0, 4, 0, 14, 0, 15, 16, 0, 22, 12, 35, 0)
s = 103: (0, 9, 0, 10, 0, 17, 12, 0, 32, 22, 42, 0)
s = 104: (0, 5, 0, 14, 0, 16, 22, 0, 16, 16, 26, 0)
s = 105: (0, 5, 0, 7, 0, 21, 16, 0, 15, 12, 25, 0)
s = 106: (0, 7, 0, 20, 0, 20, 15, 0, 28, 11, 26, 0)
s = 107: (0, 5, 0, 8, 0, 14, 18, 0, 26, 18, 26, 0)
s = 108: (0, 5, 0, 19, 0, 17, 11, 0, 25, 21, 45, 0)
s = 109: (0, 6, 0, 6, 0, 18, 17, 0, 33, 16, 32, 0)
s = 110: (0, 6, 0, 17, 0, 22, 17, 0, 14, 16, 22, 0)
s = 111: (0, 4, 0, 7, 0, 26, 20, 0, 19, 17, 43, 0)
s = 112: (0, 9, 0, 11, 0, 22, 22, 0, 23, 23, 43, 0)
s = 113: (0, 4, 0, 9, 0, 17, 13, 0, 24, 13, 32, 0)
s = 114: (0, 5, 0, 14, 0, 22, 14, 0, 20, 23, 25, 0)
s = 115: (0, 4, 0, 9, 0, 19, 12, 0, 26, 16, 23, 0)
s = 116: (0, 5, 0, 11, 0, 16, 20, 0, 25, 18, 36, 0)
s = 117: (0, 4, 0, 11, 0, 27, 19, 0, 18, 15, 54, 0)
s = 118: (0, 6, 0, 10, 0, 16, 19, 0, 32, 18, 29, 0)
s = 119: (0, 7, 0, 10, 0, 18, 16, 0, 21, 16, 37, 0)
s = 120: (0, 6, 0, 10, 0, 27, 14, 0, 17, 23, 32, 0)
s = 121: (0, 6, 0, 10, 0, 13, 12, 0, 16, 13, 37, 0)
s = 122: (0, 5, 0, 11, 0, 16, 15, 0, 24, 13, 26, 0)
s = 123: (0, 7, 0, 13, 0, 17, 13, 0, 16, 19, 25, 0)
s = 124: (0, 5, 0, 10, 0, 19, 18, 0, 21, 14, 37, 0)
s = 125: (0, 4, 0, 6, 0, 17, 14, 0, 22, 22, 37, 0)
s = 126: (0, 5, 0, 11, 0, 21, 17, 0, 13, 20, 25, 0)
s = 127: (0, 5, 0, 9, 0, 25, 11, 0, 28, 12, 28, 0)
s = 128: (0, 5, 0, 11, 0, 16, 22, 0, 14, 24, 27, 0)
s = 129: (0, 5, 0, 14, 0, 24, 25, 0, 22, 24, 28, 0)
s = 130: (0, 5, 0, 11, 0, 19, 11, 0, 20, 11, 36, 0)
s = 131: (0, 6, 0, 9, 0, 13, 14, 0, 26, 13, 30, 0)
s = 132: (0, 7, 0, 9, 0, 18, 12, 0, 17, 13, 30, 0)
s = 133: (0, 5, 0, 10, 0, 16, 10, 0, 21, 15, 31, 0)
s = 134: (0, 4, 0, 7, 0, 16, 13, 0, 22, 17, 42, 0)
s = 135: (0, 6, 0, 15, 0, 17, 25, 0, 19, 13, 56, 0)
s = 136: (0, 8, 0, 18, 0, 16, 20, 0, 12, 13, 48, 0)
s = 137: (0, 5, 0, 6, 0, 15, 15, 0, 17, 10, 37, 0)
s = 138: (0, 5, 0, 16, 0, 14, 13, 0, 14, 22, 45, 0)
s = 139: (0, 6, 0, 7, 0, 25, 21, 0, 25, 18, 28, 0)
s = 140: (0, 4, 0, 8, 0, 19, 13, 0, 27, 20, 37, 0)
s = 141: (0, 5, 0, 12, 0, 19, 19, 0, 29, 19, 21, 0)
s = 142: (0, 6, 0, 8, 0, 24, 20, 0, 19, 13, 35, 0)
s = 143: (0, 6, 0, 6, 0, 25, 14, 0, 19, 21, 30, 0)
s = 144: (0, 6, 0, 7, 0, 17, 10, 0, 14, 11, 31, 0)
s = 145: (0, 4, 0, 15, 0, 19, 17, 0, 22, 12, 47, 0)
s = 146: (0, 9, 0, 11, 0, 14, 17, 0, 26, 26, 37, 0)
s = 147: (0, 6, 0, 12, 0, 13, 11, 0, 15, 19, 30, 0)
s = 148: (0, 3, 0, 11, 0, 17, 14, 0, 32, 13, 33, 0)
s = 149: (0, 6, 0, 7, 0, 15, 18, 0, 19, 23, 68, 0)
s = 150: (0, 6, 0, 11, 0, 20, 12, 0, 15, 10, 30, 0)
s = 151: (0, 7, 0, 15, 0, 30, 9, 0, 21, 17, 32, 0)
s = 152: (0, 7, 0, 8, 0, 22, 12, 0, 18, 14, 57, 0)
s = 153: (0, 7, 0, 11, 0, 27, 15, 0, 26, 18, 32, 0)
s = 154: (0, 3, 0, 12, 0, 29, 10, 0, 17, 15, 37, 0)
s = 155: (0, 6, 0, 9, 0, 24, 14, 0, 20, 11, 39, 0)
s = 156: (0, 4, 0, 10, 0, 16, 27, 0, 32, 11, 35, 0)
s = 157: (0, 6, 0, 13, 0, 16, 14, 0, 16, 25, 19, 0)
s = 158: (0, 7, 0, 10, 0, 22, 26, 0, 30, 10, 36, 0)
s = 159: (0, 5, 0, 15, 0, 25, 26, 0, 19, 21, 33, 0)
s = 160: (0, 5, 0, 8, 0, 11, 19, 0, 15, 23, 41, 0)
s = 161: (0, 4, 0, 11, 0, 17, 16, 0, 15, 20, 29, 0)
s = 162: (0, 8, 0, 8, 0, 14, 11, 0, 13, 12, 28, 0)
s = 163: (0, 6, 0, 7, 0, 28, 23, 0, 22, 10, 27, 0)
s = 164: (0, 5, 0, 9, 0, 14, 10, 0, 25, 17, 23, 0)
s = 165: (0, 5, 0, 10, 0, 22, 16, 0, 29, 20, 34, 0)
s = 166: (0, 4, 0, 10, 0, 15, 20, 0, 33, 11, 38, 0)
s = 167: (0, 5, 0, 14, 0, 16, 12, 0, 20, 16, 55, 0)
s = 168: (0, 7, 0, 15, 0, 17, 12, 0, 20, 16, 27, 0)
s = 169: (0, 3, 0, 12, 0, 15, 14, 0, 29, 12, 30, 0)
s = 170: (0, 6, 0, 11, 0, 17, 18, 0, 14, 11, 40, 0)
s = 171: (0, 5, 0, 10, 0, 14, 10, 0, 18, 17, 24, 0)
s = 172: (0, 4, 0, 15, 0, 27, 14, 0, 27, 16, 24, 0)
s = 173: (0, 4, 0, 11, 0, 26, 16, 0, 20, 14, 42, 0)
s = 174: (0, 4, 0, 13, 0, 18, 19, 0, 22, 22, 27, 0)
s = 175: (0, 5, 0, 12, 0, 15, 18, 0, 17, 12, 37, 0)
s = 176: (0, 4, 0, 12, 0, 16, 12, 0, 23, 11, 26, 0)
s = 177: (0, 6, 0, 8, 0, 16, 21, 0, 18, 15, 49, 0)
s = 178: (0, 4, 0, 10, 0, 17, 20, 0, 25, 18, 35, 0)
s = 179: (0, 3, 0, 8, 0, 18, 13, 0, 16, 22, 34, 0)
s = 180: (0, 4, 0, 11, 0, 14, 13, 0, 21, 11, 27, 0)
s = 181: (0, 4, 0, 6, 0, 11, 14, 0, 19, 26, 37, 0)
s = 182: (0, 5, 0, 10, 0, 13, 18, 0, 25, 15, 31, 0)
s = 183: (0, 4, 0, 7, 0, 11, 10, 0, 32, 16, 34, 0)
s = 184: (0, 5, 0, 7, 0, 21, 18, 0, 29, 11, 51, 0)
s = 185: (0, 5, 0, 12, 0, 16, 12, 0, 20, 11, 25, 0)
s = 186: (0, 5, 0, 9, 0, 12, 22, 0, 30, 14, 33, 0)
s = 187: (0, 10, 0, 14, 0, 13, 16, 0, 12, 12, 26, 0)
s = 188: (0, 6, 0, 6, 0, 30, 13, 0, 23, 20, 42, 0)
s = 189: (0, 7, 0, 12, 0, 12, 16, 0, 22, 12, 24, 0)
s = 190: (0, 4, 0, 12, 0, 20, 21, 0, 17, 17, 31, 0)
s = 191: (0, 4, 0, 9, 0, 18, 15, 0, 15, 12, 39, 0)
s = 192: (0, 5, 0, 16, 0, 14, 18, 0, 18, 16, 50, 0)
s = 193: (0, 5, 0, 10, 0, 21, 24, 0, 20, 13, 30, 0)
s = 194: (0, 9, 0, 10, 0, 21, 10, 0, 18, 12, 21, 0)
s = 195: (0, 4, 0, 9, 0, 21, 20, 0, 16, 11, 24, 0)
s = 196: (0, 7, 0, 10, 0, 21, 23, 0, 14, 13, 30, 0)
s = 197: (0, 6, 0, 7, 0, 24, 20, 0, 24, 18, 44, 0)
s = 198: (0, 8, 0, 14, 0, 23, 19, 0, 24, 16, 29, 0)
s = 199: (0, 5, 0, 9, 0, 27, 14, 0, 31, 16, 39, 0)
s = 200: (0, 4, 0, 10, 0, 12, 16, 0, 16, 11, 38, 0)
------------------------------------------------------------------------
RESOURCE k = 3
s = 1: (0, 0, 62, 0, 38, 0, 0, 33, 0, 0, 0, 0)
s = 2: (0, 0, 31, 0, 38, 0, 0, 30, 0, 0, 0, 0)
s = 3: (0, 0, 35, 0, 50, 0, 0, 23, 0, 0, 0, 0)
s = 4: (0, 0, 25, 0, 52, 0, 0, 43, 0, 0, 0, 0)
s = 5: (0, 0, 33, 0, 39, 0, 0, 41, 0, 0, 0, 0)
s = 6: (0, 0, 43, 0, 17, 0, 0, 44, 0, 0, 0, 0)
s = 7: (0, 0, 20, 0, 21, 0, 0, 32, 0, 0, 0, 0)
s = 8: (0, 0, 54, 0, 25, 0, 0, 63, 0, 0, 0, 0)
s = 9: (0, 0, 49, 0, 36, 0, 0, 26, 0, 0, 0, 0)
s = 10: (0, 0, 23, 0, 32, 0, 0, 37, 0, 0, 0, 0)
s = 11: (0, 0, 50, 0, 28, 0, 0, 32, 0, 0, 0, 0)
s = 12: (0, 0, 32, 0, 23, 0, 0, 35, 0, 0, 0, 0)
s = 13: (0, 0, 41, 0, 45, 0, 0, 58, 0, 0, 0, 0)
s = 14: (0, 0, 43, 0, 31, 0, 0, 32, 0, 0, 0, 0)
s = 15: (0, 0, 32, 0, 24, 0, 0, 50, 0, 0, 0, 0)
s = 16: (0, 0, 40, 0, 37, 0, 0, 32, 0, 0, 0, 0)
s = 17: (0, 0, 22, 0, 44, 0, 0, 30, 0, 0, 0, 0)
s = 18: (0, 0, 30, 0, 24, 0, 0, 29, 0, 0, 0, 0)
s = 19: (0, 0, 29, 0, 27, 0, 0, 32, 0, 0, 0, 0)
s = 20: (0, 0, 26, 0, 25, 0, 0, 52, 0, 0, 0, 0)
s = 21: (0, 0, 39, 0, 17, 0, 0, 50, 0, 0, 0, 0)
s = 22: (0, 0, 37, 0, 28, 0, 0, 48, 0, 0, 0, 0)
s = 23: (0, 0, 46, 0, 20, 0, 0, 40, 0, 0, 0, 0)
s = 24: (0, 0, 53, 0, 38, 0, 0, 43, 0, 0, 0, 0)
s = 25: (0, 0, 34, 0, 31, 0, 0, 26, 0, 0, 0, 0)
s = 26: (0, 0, 44, 0, 39, 0, 0, 45, 0, 0, 0, 0)
s = 27: (0, 0, 42, 0, 47, 0, 0, 41, 0, 0, 0, 0)
s = 28: (0, 0, 37, 0, 26, 0, 0, 57, 0, 0, 0, 0)
s = 29: (0, 0, 23, 0, 25, 0, 0, 27, 0, 0, 0, 0)
s = 30: (0, 0, 19, 0, 24, 0, 0, 30, 0, 0, 0, 0)
s = 31: (0, 0, 41, 0, 23, 0, 0, 29, 0, 0, 0, 0)
s = 32: (0, 0, 44, 0, 33, 0, 0, 31, 0, 0, 0, 0)
s = 33: (0, 0, 26, 0, 36, 0, 0, 60, 0, 0, 0, 0)
s = 34: (0, 0, 31, 0, 25, 0, 0, 51, 0, 0, 0, 0)
s = 35: (0, 0, 44, 0, 27, 0, 0, 27, 0, 0, 0, 0)
s = 36: (0, 0, 29, 0, 29, 0, 0, 23, 0, 0, 0, 0)
s = 37: (0, 0, 24, 0, 37, 0, 0, 45, 0, 0, 0, 0)
s = 38: (0, 0, 40, 0, 18, 0, 0, 25, 0, 0, 0, 0)
s = 39: (0, 0, 22, 0, 19, 0, 0, 49, 0, 0, 0, 0)
s = 40: (0, 0, 46, 0, 35, 0, 0, 29, 0, 0, 0, 0)
s = 41: (0, 0, 20, 0, 37, 0, 0, 29, 0, 0, 0, 0)
s = 42: (0, 0, 24, 0, 52, 0, 0, 25, 0, 0, 0, 0)
s = 43: (0, 0, 38, 0, 27, 0, 0, 54, 0, 0, 0, 0)
s = 44: (0, 0, 32, 0, 35, 0, 0, 40, 0, 0, 0, 0)
s = 45: (0, 0, 66, 0, 26, 0, 0, 36, 0, 0, 0, 0)
s = 46: (0, 0, 47, 0, 20, 0, 0, 56, 0, 0, 0, 0)
s = 47: (0, 0, 38, 0, 33, 0, 0, 37, 0, 0, 0, 0)
s = 48: (0, 0, 38, 0, 21, 0, 0, 37, 0, 0, 0, 0)
s = 49: (0, 0, 46, 0, 42, 0, 0, 69, 0, 0, 0, 0)
s = 50: (0, 0, 26, 0, 23, 0, 0, 26, 0, 0, 0, 0)
s = 51: (0, 0, 28, 0, 28, 0, 0, 50, 0, 0, 0, 0)
s = 52: (0, 0, 23, 0, 30, 0, 0, 58, 0, 0, 0, 0)
s = 53: (0, 0, 34, 0, 28, 0, 0, 31, 0, 0, 0, 0)
s = 54: (0, 0, 38, 0, 31, 0, 0, 29, 0, 0, 0, 0)
s = 55: (0, 0, 25, 0, 22, 0, 0, 43, 0, 0, 0, 0)
s = 56: (0, 0, 31, 0, 29, 0, 0, 37, 0, 0, 0, 0)
s = 57: (0, 0, 64, 0, 27, 0, 0, 24, 0, 0, 0, 0)
s = 58: (0, 0, 31, 0, 29, 0, 0, 49, 0, 0, 0, 0)
s = 59: (0, 0, 29, 0, 33, 0, 0, 38, 0, 0, 0, 0)
s = 60: (0, 0, 26, 0, 20, 0, 0, 31, 0, 0, 0, 0)
s = 61: (0, 0, 25, 0, 21, 0, 0, 26, 0, 0, 0, 0)
s = 62: (0, 0, 37, 0, 20, 0, 0, 35, 0, 0, 0, 0)
s = 63: (0, 0, 35, 0, 33, 0, 0, 58, 0, 0, 0, 0)
s = 64: (0, 0, 22, 0, 21, 0, 0, 30, 0, 0, 0, 0)
s = 65: (0, 0, 22, 0, 46, 0, 0, 25, 0, 0, 0, 0)
s = 66: (0, 0, 33, 0, 16, 0, 0, 42, 0, 0, 0, 0)
s = 67: (0, 0, 37, 0, 28, 0, 0, 36, 0, 0, 0, 0)
s = 68: (0, 0, 29, 0, 24, 0, 0, 41, 0, 0, 0, 0)
s = 69: (0, 0, 39, 0, 35, 0, 0, 60, 0, 0, 0, 0)
s = 70: (0, 0, 55, 0, 41, 0, 0, 24, 0, 0, 0, 0)
s = 71: (0, 0, 34, 0, 32, 0, 0, 51, 0, 0, 0, 0)
s = 72: (0, 0, 38, 0, 32, 0, 0, 49, 0, 0, 0, 0)
s = 73: (0, 0, 32, 0, 34, 0, 0, 40, 0, 0, 0, 0)
s = 74: (0, 0, 45, 0, 38, 0, 0, 29, 0, 0, 0, 0)
s = 75: (0, 0, 41, 0, 21, 0, 0, 52, 0, 0, 0, 0)
s = 76: (0, 0, 41, 0, 29, 0, 0, 31, 0, 0, 0, 0)
s = 77: (0, 0, 51, 0, 20, 0, 0, 28, 0, 0, 0, 0)
s = 78: (0, 0, 55, 0, 18, 0, 0, 41, 0, 0, 0, 0)
s = 79: (0, 0, 27, 0, 24, 0, 0, 27, 0, 0, 0, 0)
s = 80: (0, 0, 22, 0, 42, 0, 0, 49, 0, 0, 0, 0)
s = 81: (0, 0, 26, 0, 24, 0, 0, 52, 0, 0, 0, 0)
s = 82: (0, 0, 34, 0, 43, 0, 0, 40, 0, 0, 0, 0)
s = 83: (0, 0, 19, 0, 48, 0, 0, 37, 0, 0, 0, 0)
s = 84: (0, 0, 41, 0, 26, 0, 0, 27, 0, 0, 0, 0)
s = 85: (0, 0, 34, 0, 48, 0, 0, 40, 0, 0, 0, 0)
s = 86: (0, 0, 25, 0, 33, 0, 0, 51, 0, 0, 0, 0)
s = 87: (0, 0, 47, 0, 33, 0, 0, 69, 0, 0, 0, 0)
s = 88: (0, 0, 30, 0, 27, 0, 0, 41, 0, 0, 0, 0)
s = 89: (0, 0, 49, 0, 31, 0, 0, 52, 0, 0, 0, 0)
s = 90: (0, 0, 42, 0, 33, 0, 0, 40, 0, 0, 0, 0)
s = 91: (0, 0, 48, 0, 46, 0, 0, 36, 0, 0, 0, 0)
s = 92: (0, 0, 31, 0, 31, 0, 0, 44, 0, 0, 0, 0)
s = 93: (0, 0, 23, 0, 34, 0, 0, 26, 0, 0, 0, 0)
s = 94: (0, 0, 45, 0, 25, 0, 0, 33, 0, 0, 0, 0)
s = 95: (0, 0, 22, 0, 32, 0, 0, 63, 0, 0, 0, 0)
s = 96: (0, 0, 47, 0, 23, 0, 0, 54, 0, 0, 0, 0)
s = 97: (0, 0, 29, 0, 26, 0, 0, 47, 0, 0, 0, 0)
s = 98: (0, 0, 32, 0, 33, 0, 0, 39, 0, 0, 0, 0)
s = 99: (0, 0, 39, 0, 21, 0, 0, 49, 0, 0, 0, 0)
s = 100: (0, 0, 25, 0, 19, 0, 0, 38, 0, 0, 0, 0)
s = 101: (0, 0, 40, 0, 29, 0, 0, 54, 0, 0, 0, 0)
s = 102: (0, 0, 29, 0, 29, 0, 0, 57, 0, 0, 0, 0)
s = 103: (0, 0, 26, 0, 31, 0, 0, 47, 0, 0, 0, 0)
s = 104: (0, 0, 36, 0, 28, 0, 0, 65, 0, 0, 0, 0)
s = 105: (0, 0, 60, 0, 37, 0, 0, 35, 0, 0, 0, 0)
s = 106: (0, 0, 47, 0, 31, 0, 0, 34, 0, 0, 0, 0)
s = 107: (0, 0, 41, 0, 22, 0, 0, 38, 0, 0, 0, 0)
s = 108: (0, 0, 37, 0, 29, 0, 0, 21, 0, 0, 0, 0)
s = 109: (0, 0, 36, 0, 19, 0, 0, 24, 0, 0, 0, 0)
s = 110: (0, 0, 28, 0, 20, 0, 0, 38, 0, 0, 0, 0)
s = 111: (0, 0, 24, 0, 35, 0, 0, 32, 0, 0, 0, 0)
s = 112: (0, 0, 20, 0, 24, 0, 0, 46, 0, 0, 0, 0)
s = 113: (0, 0, 29, 0, 30, 0, 0, 39, 0, 0, 0, 0)
s = 114: (0, 0, 30, 0, 44, 0, 0, 50, 0, 0, 0, 0)
s = 115: (0, 0, 27, 0, 34, 0, 0, 31, 0, 0, 0, 0)
s = 116: (0, 0, 25, 0, 26, 0, 0, 46, 0, 0, 0, 0)
s = 117: (0, 0, 28, 0, 26, 0, 0, 39, 0, 0, 0, 0)
s = 118: (0, 0, 34, 0, 41, 0, 0, 55, 0, 0, 0, 0)
s = 119: (0, 0, 38, 0, 22, 0, 0, 29, 0, 0, 0, 0)
s = 120: (0, 0, 48, 0, 19, 0, 0, 28, 0, 0, 0, 0)
s = 121: (0, 0, 39, 0, 44, 0, 0, 24, 0, 0, 0, 0)
s = 122: (0, 0, 50, 0, 25, 0, 0, 30, 0, 0, 0, 0)
s = 123: (0, 0, 32, 0, 38, 0, 0, 50, 0, 0, 0, 0)
s = 124: (0, 0, 29, 0, 45, 0, 0, 35, 0, 0, 0, 0)
s = 125: (0, 0, 25, 0, 19, 0, 0, 66, 0, 0, 0, 0)
s = 126: (0, 0, 39, 0, 18, 0, 0, 28, 0, 0, 0, 0)
s = 127: (0, 0, 22, 0, 31, 0, 0, 35, 0, 0, 0, 0)
s = 128: (0, 0, 42, 0, 35, 0, 0, 47, 0, 0, 0, 0)
s = 129: (0, 0, 49, 0, 26, 0, 0, 52, 0, 0, 0, 0)
s = 130: (0, 0, 41, 0, 41, 0, 0, 26, 0, 0, 0, 0)
s = 131: (0, 0, 46, 0, 20, 0, 0, 29, 0, 0, 0, 0)
s = 132: (0, 0, 29, 0, 41, 0, 0, 53, 0, 0, 0, 0)
s = 133: (0, 0, 44, 0, 20, 0, 0, 23, 0, 0, 0, 0)
s = 134: (0, 0, 28, 0, 30, 0, 0, 37, 0, 0, 0, 0)
s = 135: (0, 0, 41, 0, 23, 0, 0, 51, 0, 0, 0, 0)
s = 136: (0, 0, 37, 0, 19, 0, 0, 61, 0, 0, 0, 0)
s = 137: (0, 0, 22, 0, 19, 0, 0, 32, 0, 0, 0, 0)
s = 138: (0, 0, 51, 0, 34, 0, 0, 47, 0, 0, 0, 0)
s = 139: (0, 0, 29, 0, 42, 0, 0, 53, 0, 0, 0, 0)
s = 140: (0, 0, 38, 0, 34, 0, 0, 30, 0, 0, 0, 0)
s = 141: (0, 0, 53, 0, 39, 0, 0, 36, 0, 0, 0, 0)
s = 142: (0, 0, 22, 0, 20, 0, 0, 52, 0, 0, 0, 0)
s = 143: (0, 0, 38, 0, 31, 0, 0, 37, 0, 0, 0, 0)
s = 144: (0, 0, 36, 0, 23, 0, 0, 23, 0, 0, 0, 0)
s = 145: (0, 0, 41, 0, 49, 0, 0, 32, 0, 0, 0, 0)
s = 146: (0, 0, 46, 0, 35, 0, 0, 34, 0, 0, 0, 0)
s = 147: (0, 0, 30, 0, 29, 0, 0, 35, 0, 0, 0, 0)
s = 148: (0, 0, 28, 0, 19, 0, 0, 37, 0, 0, 0, 0)
s = 149: (0, 0, 35, 0, 54, 0, 0, 44, 0, 0, 0, 0)
s = 150: (0, 0, 27, 0, 57, 0, 0, 41, 0, 0, 0, 0)
s = 151: (0, 0, 33, 0, 42, 0, 0, 36, 0, 0, 0, 0)
s = 152: (0, 0, 35, 0, 36, 0, 0, 49, 0, 0, 0, 0)
s = 153: (0, 0, 39, 0, 36, 0, 0, 43, 0, 0, 0, 0)
s = 154: (0, 0, 34, 0, 37, 0, 0, 30, 0, 0, 0, 0)
s = 155: (0, 0, 38, 0, 40, 0, 0, 50, 0, 0, 0, 0)
s = 156: (0, 0, 30, 0, 34, 0, 0, 32, 0, 0, 0, 0)
s = 157: (0, 0, 31, 0, 37, 0, 0, 40, 0, 0, 0, 0)
s = 158: (0, 0, 35, 0, 31, 0, 0, 30, 0, 0, 0, 0)
s = 159: (0, 0, 51, 0, 25, 0, 0, 47, 0, 0, 0, 0)
s = 160: (0, 0, 31, 0, 29, 0, 0, 44, 0, 0, 0, 0)
s = 161: (0, 0, 37, 0, 21, 0, 0, 46, 0, 0, 0, 0)
s = 162: (0, 0, 45, 0, 28, 0, 0, 39, 0, 0, 0, 0)
s = 163: (0, 0, 51, 0, 28, 0, 0, 66, 0, 0, 0, 0)
s = 164: (0, 0, 56, 0, 20, 0, 0, 53, 0, 0, 0, 0)
s = 165: (0, 0, 45, 0, 26, 0, 0, 39, 0, 0, 0, 0)
s = 166: (0, 0, 58, 0, 28, 0, 0, 46, 0, 0, 0, 0)
s = 167: (0, 0, 36, 0, 33, 0, 0, 63, 0, 0, 0, 0)
s = 168: (0, 0, 33, 0, 37, 0, 0, 30, 0, 0, 0, 0)
s = 169: (0, 0, 36, 0, 22, 0, 0, 44, 0, 0, 0, 0)
s = 170: (0, 0, 52, 0, 42, 0, 0, 36, 0, 0, 0, 0)
s = 171: (0, 0, 63, 0, 34, 0, 0, 37, 0, 0, 0, 0)
s = 172: (0, 0, 41, 0, 36, 0, 0, 46, 0, 0, 0, 0)
s = 173: (0, 0, 36, 0, 34, 0, 0, 40, 0, 0, 0, 0)
s = 174: (0, 0, 35, 0, 18, 0, 0, 54, 0, 0, 0, 0)
s = 175: (0, 0, 41, 0, 36, 0, 0, 50, 0, 0, 0, 0)
s = 176: (0, 0, 30, 0, 28, 0, 0, 34, 0, 0, 0, 0)
s = 177: (0, 0, 34, 0, 45, 0, 0, 22, 0, 0, 0, 0)
s = 178: (0, 0, 55, 0, 29, 0, 0, 59, 0, 0, 0, 0)
s = 179: (0, 0, 30, 0, 28, 0, 0, 37, 0, 0, 0, 0)
s = 180: (0, 0, 36, 0, 27, 0, 0, 53, 0, 0, 0, 0)
s = 181: (0, 0, 31, 0, 49, 0, 0, 31, 0, 0, 0, 0)
s = 182: (0, 0, 39, 0, 23, 0, 0, 36, 0, 0, 0, 0)
s = 183: (0, 0, 42, 0, 29, 0, 0, 69, 0, 0, 0, 0)
s = 184: (0, 0, 44, 0, 22, 0, 0, 36, 0, 0, 0, 0)
s = 185: (0, 0, 49, 0, 30, 0, 0, 36, 0, 0, 0, 0)
s = 186: (0, 0, 35, 0, 20, 0, 0, 62, 0, 0, 0, 0)
s = 187: (0, 0, 36, 0, 26, 0, 0, 37, 0, 0, 0, 0)
s = 188: (0, 0, 40, 0, 39, 0, 0, 44, 0, 0, 0, 0)
s = 189: (0, 0, 27, 0, 32, 0, 0, 28, 0, 0, 0, 0)
s = 190: (0, 0, 42, 0, 21, 0, 0, 49, 0, 0, 0, 0)
s = 191: (0, 0, 28, 0, 46, 0, 0, 56, 0, 0, 0, 0)
s = 192: (0, 0, 36, 0, 47, 0, 0, 30, 0, 0, 0, 0)
s = 193: (0, 0, 39, 0, 26, 0, 0, 40, 0, 0, 0, 0)
s = 194: (0, 0, 26, 0, 27, 0, 0, 39, 0, 0, 0, 0)
s = 195: (0, 0, 43, 0, 35, 0, 0, 64, 0, 0, 0, 0)
s = 196: (0, 0, 27, 0, 25, 0, 0, 46, 0, 0, 0, 0)
s = 197: (0, 0, 21, 0, 31, 0, 0, 46, 0, 0, 0, 0)
s = 198: (0, 0, 33, 0, 40, 0, 0, 58, 0, 0, 0, 0)
s = 199: (0, 0, 48, 0, 18, 0, 0, 29, 0, 0, 0, 0)
s = 200: (0, 0, 36, 0, 27, 0, 0, 50, 0, 0, 0, 0)
************************************************************************
ES/LS-VALUES:
jobnr.   ES(i)    LS(i)
------------------------------------------------------------------------
  0        0        0
  1        0       40
  2        0       41
  3        0       50
  4        2       42
  5        7       49
  6        2       52
  7        7       48
  8       14       55
  9        5       64
 10       12       56
 11       26       68
************************************************************************
BIG-M-VALUES:
M1 = 57, M2 = 190
************************************************************************
